sssd08-04.py
Ipopt 3.12.8: 
==> Warning: Treating 44 binary and 0 integer variables as continous.


******************************************************************************
This program contains Ipopt, a library for large-scale nonlinear optimization.
 Ipopt is released as open source code under the Eclipse Public License (EPL).
         For more information visit http://projects.coin-or.org/Ipopt
******************************************************************************

This is Ipopt version 3.12.8, running with linear solver ma27.

Number of nonzeros in equality constraint Jacobian...:       76
Number of nonzeros in inequality constraint Jacobian.:       60
Number of nonzeros in Lagrangian Hessian.............:        4

Total number of variables............................:       60
                     variables with only lower bounds:       16
                variables with lower and upper bounds:       44
                     variables with only upper bounds:        0
Total number of equality constraints.................:       12
Total number of inequality constraints...............:       28
        inequality constraints with only lower bounds:        0
   inequality constraints with lower and upper bounds:        0
        inequality constraints with only upper bounds:       28

iter    objective    inf_pr   inf_du lg(mu)  ||d||  lg(rg) alpha_du alpha_pr  ls
   0  2.8231028e+03 9.60e-01 2.86e+01  -1.0 0.00e+00    -  0.00e+00 0.00e+00   0
   1  2.7342670e+03 9.27e-01 2.69e+01  -1.0 5.50e-01    -  5.51e-02 3.47e-02f  1
   2  7.7764280e+03 8.42e-01 2.87e+01  -1.0 8.35e-01    -  4.73e-02 9.09e-02h  1
   3  1.9940171e+04 6.41e-01 1.75e+01  -1.0 8.34e-01    -  3.38e-01 2.39e-01h  1
   4  4.7017371e+04 2.38e-01 1.55e+01  -1.0 6.58e-01    -  4.32e-01 6.29e-01h  1
   5  6.8750669e+04 3.91e-03 1.70e+00  -1.0 2.83e-01    -  1.00e+00 1.00e+00h  1
   6  7.0316020e+04 2.22e-16 1.81e-02  -1.0 7.63e-02    -  1.00e+00 1.00e+00h  1
   7  6.9222460e+04 8.72e-05 3.96e-01  -2.5 2.02e-01    -  7.29e-01 9.97e-01f  1
   8  6.8896195e+04 4.44e-16 1.87e-01  -2.5 3.25e-01    -  6.29e-01 9.33e-01f  1
   9  6.8737505e+04 6.66e-16 3.58e-02  -2.5 2.71e-01    -  7.71e-01 1.00e+00f  1
iter    objective    inf_pr   inf_du lg(mu)  ||d||  lg(rg) alpha_du alpha_pr  ls
  10  6.8705110e+04 2.22e-16 5.92e-06  -2.5 1.20e-01    -  1.00e+00 1.00e+00f  1
  11  6.8613271e+04 4.44e-16 6.37e-03  -3.8 1.71e-01    -  8.40e-01 1.00e+00f  1
  12  6.8610263e+04 5.55e-16 1.20e-03  -3.8 5.23e-02    -  1.00e+00 9.68e-01f  1
  13  6.8605673e+04 3.33e-16 2.56e-03  -5.7 6.77e-03    -  1.00e+00 9.08e-01f  1
  14  6.8605231e+04 2.22e-16 2.32e-06  -5.7 1.23e-03    -  1.00e+00 1.00e+00f  1
  15  6.8605166e+04 1.11e-09 8.99e-05  -8.6 3.34e-04    -  1.00e+00 9.83e-01h  1
  16  6.8605165e+04 2.22e-16 1.35e-09  -8.6 2.51e-05    -  1.00e+00 1.00e+00f  1

Number of Iterations....: 16

                                   (scaled)                 (unscaled)
Objective...............:   1.0134954269050111e+02    6.8605164983061288e+04
Dual infeasibility......:   1.3479458559996502e-09    9.1244662170298088e-07
Constraint violation....:   2.2204460492503131e-16    2.2204460492503131e-16
Complementarity.........:   4.2072356021341035e-09    2.8479466699564269e-06
Overall NLP error.......:   4.2072356021341035e-09    2.8479466699564269e-06


Number of objective function evaluations             = 17
Number of objective gradient evaluations             = 17
Number of equality constraint evaluations            = 17
Number of inequality constraint evaluations          = 17
Number of equality constraint Jacobian evaluations   = 17
Number of inequality constraint Jacobian evaluations = 17
Number of Lagrangian Hessian evaluations             = 16
Total CPU secs in IPOPT (w/o function evaluations)   =      0.000
Total CPU secs in NLP function evaluations           =      0.000

EXIT: Optimal Solution Found.

Time elapsed: 0.135343790054